SYSTEM = OPT
ISTART=0
LCHARG = .TRUE.

NELM = 500
NELMIN = 6
EDIFF = 1E-05
ENCUT = 400
LORBIT=11#总态密度轨道投影
NPAR=1

ALGO = N
NSW = 500
IBRION = 2
EDIFFG = -0.02

PREC = Accurate
ISPIN = 2
ISIF = 2

NCORE = 16